Route #1: 1 72 81 31 3 44 65 37 100 1
Route #2 1 94 105 61 62 23 84 77 56 57 1
Route #3 1 26 104 103 10 34 102 5 25 85 78 1
Route #4 1 52 86 12 16 88 27 54 67 99 1
Route #5 1 107 43 98 93 21 75 79 33 1
Route #6 1 17 30 45 71 24 14 58 1
Route #7 1 83 108 8 38 95 82 91 2 1
Route #8 1 109 39 47 6 7 19 110 70 1
Route #9 1 15 50 20 59 13 42 55 69 53 1
Route #10 1 51 40 29 32 18 60 66 28 1
Route #11 1 96 97 89 76 22 73 64 11 101 1
Route #12 1 63 9 41 48 87 74 36 49 1
Route #13 1 4 80 106 35 46 68 90 92 1
Cost: 15723